
Gurobi 10.0.3 (win64, Python) logging started Thu Feb  1 21:08:50 2024

Set parameter Username
Set parameter LogFile to value "gurobi.log"
Academic license - for non-commercial use only - expires 2024-09-16
Read LP format model from file few3.lp
Reading time = 0.02 seconds
: 4216 rows, 1192 columns, 16528 nonzeros
Gurobi Optimizer version 10.0.3 build v10.0.3rc0 (win64)

CPU model: Intel(R) Core(TM) i7-8565U CPU @ 1.80GHz, instruction set [SSE2|AVX|AVX2]
Thread count: 4 physical cores, 8 logical processors, using up to 8 threads

Optimize a model with 4216 rows, 1192 columns and 16528 nonzeros
Model fingerprint: 0x6c4eee2a
Variable types: 0 continuous, 1192 integer (1192 binary)
Coefficient statistics:
  Matrix range     [1e+00, 8e+00]
  Objective range  [2e+00, 3e+00]
  Bounds range     [1e+00, 1e+00]
  RHS range        [1e+00, 7e+00]
Presolve removed 951 rows and 221 columns
Presolve time: 0.14s
Presolved: 3265 rows, 971 columns, 12288 nonzeros
Variable types: 0 continuous, 971 integer (971 binary)

Root relaxation: objective 1.886111e+01, 988 iterations, 0.06 seconds (0.02 work units)

    Nodes    |    Current Node    |     Objective Bounds      |     Work
 Expl Unexpl |  Obj  Depth IntInf | Incumbent    BestBd   Gap | It/Node Time

     0     0   18.86111    0  405          -   18.86111      -     -    0s
H    0     0                      61.0000000   18.86111  69.1%     -    0s
H    0     0                      60.0000000   18.86111  68.6%     -    0s
H    0     0                      54.0000000   18.86111  65.1%     -    0s
     0     0   20.35958    0  562   54.00000   20.35958  62.3%     -    0s
     0     0   20.72977    0  572   54.00000   20.72977  61.6%     -    0s
     0     0   20.79253    0  584   54.00000   20.79253  61.5%     -    0s
     0     0   20.84496    0  612   54.00000   20.84496  61.4%     -    0s
     0     0   20.84502    0  561   54.00000   20.84502  61.4%     -    0s
     0     0   21.31464    0  567   54.00000   21.31464  60.5%     -    0s
     0     0   21.34149    0  571   54.00000   21.34149  60.5%     -    0s
     0     0   21.36089    0  562   54.00000   21.36089  60.4%     -    0s
     0     0   21.36132    0  551   54.00000   21.36132  60.4%     -    0s
     0     0   21.36202    0  552   54.00000   21.36202  60.4%     -    0s
     0     0   21.36203    0  552   54.00000   21.36203  60.4%     -    0s
     0     0   21.52695    0  580   54.00000   21.52695  60.1%     -    0s
     0     0   21.57399    0  533   54.00000   21.57399  60.0%     -    0s
     0     0   21.58584    0  616   54.00000   21.58584  60.0%     -    0s
     0     0   21.60216    0  648   54.00000   21.60216  60.0%     -    1s
     0     0   21.60276    0  517   54.00000   21.60276  60.0%     -    1s
     0     0   21.62787    0  604   54.00000   21.62787  59.9%     -    1s
     0     0   21.63219    0  655   54.00000   21.63219  59.9%     -    1s
     0     0   21.64773    0  507   54.00000   21.64773  59.9%     -    1s
     0     0   21.65304    0  506   54.00000   21.65304  59.9%     -    1s
     0     0   21.65611    0  500   54.00000   21.65611  59.9%     -    1s
     0     0   21.65611    0  503   54.00000   21.65611  59.9%     -    1s
     0     0   21.66488    0  639   54.00000   21.66488  59.9%     -    1s
     0     0   21.66836    0  502   54.00000   21.66836  59.9%     -    1s
     0     0   21.67084    0  599   54.00000   21.67084  59.9%     -    1s
     0     0   21.67101    0  595   54.00000   21.67101  59.9%     -    1s
     0     0   21.70047    0  511   54.00000   21.70047  59.8%     -    1s
     0     0   21.70340    0  611   54.00000   21.70340  59.8%     -    1s
     0     0   21.70349    0  614   54.00000   21.70349  59.8%     -    1s
H    0     0                      51.0000000   21.70800  57.4%     -    1s
     0     0   21.70800    0  699   51.00000   21.70800  57.4%     -    1s
     0     0   21.71364    0  726   51.00000   21.71364  57.4%     -    1s
     0     0   21.72348    0  697   51.00000   21.72348  57.4%     -    1s
     0     0   21.72350    0  695   51.00000   21.72350  57.4%     -    1s
     0     0   21.72750    0  536   51.00000   21.72750  57.4%     -    1s
     0     0   21.73153    0  622   51.00000   21.73153  57.4%     -    1s
     0     0   21.73153    0  624   51.00000   21.73153  57.4%     -    1s
     0     0   21.73239    0  623   51.00000   21.73239  57.4%     -    1s
     0     0   21.73239    0  623   51.00000   21.73239  57.4%     -    1s
     0     0   21.76333    0  770   51.00000   21.76333  57.3%     -    2s
     0     0   21.77186    0  775   51.00000   21.77186  57.3%     -    2s
     0     0   21.77370    0  739   51.00000   21.77370  57.3%     -    2s
     0     0   21.77706    0  757   51.00000   21.77706  57.3%     -    2s
     0     0   21.77727    0  794   51.00000   21.77727  57.3%     -    2s
     0     0   21.82098    0  772   51.00000   21.82098  57.2%     -    2s
     0     0   21.82551    0  774   51.00000   21.82551  57.2%     -    2s
     0     0   21.84881    0  787   51.00000   21.84881  57.2%     -    2s
     0     0   21.85152    0  810   51.00000   21.85152  57.2%     -    2s
     0     0   21.85202    0  819   51.00000   21.85202  57.2%     -    2s
     0     0   21.87320    0  674   51.00000   21.87320  57.1%     -    2s
     0     0   21.87754    0  774   51.00000   21.87754  57.1%     -    2s
     0     0   21.87773    0  778   51.00000   21.87773  57.1%     -    2s
     0     0   21.87773    0  781   51.00000   21.87773  57.1%     -    2s
     0     0   21.87773    0  785   51.00000   21.87773  57.1%     -    2s
     0     0   21.88731    0  793   51.00000   21.88731  57.1%     -    2s
     0     0   21.88980    0  784   51.00000   21.88980  57.1%     -    2s
     0     0   21.89011    0  791   51.00000   21.89011  57.1%     -    2s
     0     0   21.89025    0  789   51.00000   21.89025  57.1%     -    2s
     0     0   21.89025    0  789   51.00000   21.89025  57.1%     -    2s
     0     0   21.92354    0  787   51.00000   21.92354  57.0%     -    2s
     0     0   21.93071    0  790   51.00000   21.93071  57.0%     -    3s
     0     0   21.93121    0  781   51.00000   21.93121  57.0%     -    3s
     0     0   21.93125    0  782   51.00000   21.93125  57.0%     -    3s
     0     0   21.93125    0  782   51.00000   21.93125  57.0%     -    3s
     0     0   21.93141    0  782   51.00000   21.93141  57.0%     -    3s
     0     0   21.93141    0  782   51.00000   21.93141  57.0%     -    3s
     0     2   21.93141    0  778   51.00000   21.93141  57.0%     -    3s
*  191   165              30      49.0000000   22.84833  53.4%   223    4s
   290   224   35.34959   16  391   49.00000   22.99821  53.1%   209    5s
*  402   270              34      45.0000000   23.01353  48.9%   188    5s
H  424   278                      44.0000000   23.01353  47.7%   186    5s
H  455   281                      43.0000000   23.01353  46.5%   184    5s
  1048   547   35.27778   21  745   43.00000   24.60660  42.8%   156   10s
  1055   551   34.92662   15  816   43.00000   24.60660  42.8%   155   15s
H 1055   523                      41.0000000   24.60660  40.0%   155   16s
H 1256   620                      39.0000000   24.71966  36.6%   186   19s
  1321   630   36.36907   29  331   39.00000   24.71966  36.6%   186   20s
H 1415   609                      38.0000000   24.71966  34.9%   189   20s
H 1473   591                      37.0000000   24.79310  33.0%   188   21s
H 1855   587                      36.0000000   25.24867  29.9%   196   25s
  2958   772   30.83595   30  428   36.00000   26.03445  27.7%   193   30s
  4158  1218   33.38889   35  539   36.00000   26.68250  25.9%   188   35s
  5767  1759   33.04412   26  379   36.00000   27.22842  24.4%   186   40s
  7797  2352   32.06667   33  315   36.00000   27.63348  23.2%   181   45s
* 8550  2394              36      35.0000000   27.73767  20.7%   179   46s
  9741  2686   33.54167   36  194   35.00000   27.94607  20.2%   178   54s
  9845  2749   31.87769   24  596   35.00000   27.94938  20.1%   178   55s
 11653  3191   33.81240   32  572   35.00000   28.20370  19.4%   176   60s
 13895  3614     cutoff   30        35.00000   28.43904  18.7%   176   65s
 15574  3994   31.14646   24  566   35.00000   28.64105  18.2%   178   70s
 17478  4428   34.00000   34  316   35.00000   28.86309  17.5%   180   75s
*18407  3909              30      34.0000000   28.94821  14.9%   181   77s
 19519  4023   32.02074   33  576   34.00000   29.10714  14.4%   182   82s
 20977  4106   32.16667   33  311   34.00000   29.27713  13.9%   184   86s
 22613  4154     cutoff   28        34.00000   29.43979  13.4%   185   92s
 23742  4216     cutoff   28        34.00000   29.53251  13.1%   185   97s
 24020  4204     cutoff   33        34.00000   29.57471  13.0%   185  100s
 25562  4202   30.42857   27  598   34.00000   29.78314  12.4%   187  105s
*25721   409              29      30.0000000   29.78571  0.71%   187  105s

Cutting planes:
  Gomory: 8
  Cover: 143
  Implied bound: 30
  Clique: 5
  MIR: 1
  Flow cover: 19
  Inf proof: 12
  Zero half: 277
  Mod-K: 1
  RLT: 31
  BQP: 2

Explored 26345 nodes (4952683 simplex iterations) in 105.08 seconds (78.28 work units)
Thread count was 8 (of 8 available processors)

Solution count 10: 30 34 35 ... 44

Optimal solution found (tolerance 1.00e-04)
Best objective 3.000000000000e+01, best bound 3.000000000000e+01, gap 0.0000%
